language ESSENCE' 1.0
letting lastdx=112
letting cage be [
[33,9,16,10,16,10,15,9,15,0,0],
[15,11,5,11,6,0,0, 0,0, 0,0],
[39,9,2,10,2,10,1,11,1,12,1],
[38,15,3,15,2,16,2,0,0, 0,0],
[9,3,1,0,0, 0,0, 0,0, 0,0],
[4,11,11,12,11,0,0, 0,0, 0,0],
[9,13,5,13,4,0,0, 0,0, 0,0],
[28,4,6,4,5,3,5,0,0, 0,0],
[4,13,13,0,0, 0,0, 0,0, 0,0],
[5,5,6,0,0, 0,0, 0,0, 0,0],
[26,15,5,16,5,16,6,16,7,0,0],
[28,9,10,9,9,9,8,0,0, 0,0],
[5,7,15,0,0, 0,0, 0,0, 0,0],
[13,14,8,0,0, 0,0, 0,0, 0,0],
[1,13,15,0,0, 0,0, 0,0, 0,0],
[12,11,15,0,0, 0,0, 0,0, 0,0],
[10,4,4,0,0, 0,0, 0,0, 0,0],
[26,9,5,10,5,10,6,0,0, 0,0],
[45,12,14,12,13,12,12,13,12,0,0],
[37,3,2,2,2,2,1,1,1,1,2],
[2,7,10,0,0, 0,0, 0,0, 0,0],
[32,7,3,7,4,6,4,0,0, 0,0],
[12,3,10,4,10,0,0, 0,0, 0,0],
[8,6,1,0,0, 0,0, 0,0, 0,0],
[26,15,15,15,14,14,14,13,14,0,0],
[11,6,13,0,0, 0,0, 0,0, 0,0],
[21,16,9,16,8,0,0, 0,0, 0,0],
[45,2,6,2,7,2,8,1,8,1,9],
[16,11,4,0,0, 0,0, 0,0, 0,0],
[5,14,13,0,0, 0,0, 0,0, 0,0],
[18,8,4,8,5,0,0, 0,0, 0,0],
[10,11,10,0,0, 0,0, 0,0, 0,0],
[17,15,9,15,10,0,0, 0,0, 0,0],
[34,7,5,7,6,7,7,8,7,9,7],
[3,7,13,0,0, 0,0, 0,0, 0,0],
[10,9,3,0,0, 0,0, 0,0, 0,0],
[13,8,13,0,0, 0,0, 0,0, 0,0],
[17,15,7,15,8,0,0, 0,0, 0,0],
[8,11,7,10,7,0,0, 0,0, 0,0],
[13,10,9,0,0, 0,0, 0,0, 0,0],
[2,4,9,0,0, 0,0, 0,0, 0,0],
[6,13,8,0,0, 0,0, 0,0, 0,0],
[34,13,2,13,3,12,3,12,2,11,2],
[25,12,10,12,9,11,9,0,0, 0,0],
[4,4,7,0,0, 0,0, 0,0, 0,0],
[48,1,13,1,12,1,11,1,10,0,0],
[3,3,16,0,0, 0,0, 0,0, 0,0],
[16,7,9,0,0, 0,0, 0,0, 0,0],
[36,8,3,8,2,7,2,0,0, 0,0],
[5,10,3,11,3,0,0, 0,0, 0,0],
[15,14,4,0,0, 0,0, 0,0, 0,0],
[40,6,12,5,12,5,13,5,14,6,14],
[50,1,14,1,15,2,15,2,14,3,14],
[32,14,12,14,11,13,11,0,0, 0,0],
[4,16,12,0,0, 0,0, 0,0, 0,0],
[15,9,4,10,4,0,0, 0,0, 0,0],
[23,7,12,7,11,0,0, 0,0, 0,0],
[21,1,16,2,16,0,0, 0,0, 0,0],
[27,8,10,8,11,8,12,9,12,0,0],
[31,5,9,5,8,4,8,0,0, 0,0],
[51,14,15,14,16,15,16,16,16,16,15],
[11,11,16,0,0, 0,0, 0,0, 0,0],
[8,14,3,0,0, 0,0, 0,0, 0,0],
[10,8,9,0,0, 0,0, 0,0, 0,0],
[7,5,10,0,0, 0,0, 0,0, 0,0],
[5,11,14,0,0, 0,0, 0,0, 0,0],
[27,1,6,1,7,1,5,0,0, 0,0],
[25,6,11,6,10,6,9,6,8,0,0],
[26,5,4,5,5,6,5,0,0, 0,0],
[17,15,12,15,11,16,11,16,10,0,0],
[21,5,3,5,2,0,0, 0,0, 0,0],
[28,6,6,6,7,5,7,0,0, 0,0],
[2,2,5,0,0, 0,0, 0,0, 0,0],
[6,8,15,0,0, 0,0, 0,0, 0,0],
[22,9,13,10,13,0,0, 0,0, 0,0],
[6,11,13,0,0, 0,0, 0,0, 0,0],
[9,10,12,11,12,0,0, 0,0, 0,0],
[23,14,1,13,1,14,2,0,0, 0,0],
[25,16,4,15,4,16,3,0,0, 0,0],
[27,13,10,13,9,0,0, 0,0, 0,0],
[3,1,3,0,0, 0,0, 0,0, 0,0],
[19,12,5,12,4,0,0, 0,0, 0,0],
[30,14,5,14,6,15,6,0,0, 0,0],
[15,14,10,14,9,0,0, 0,0, 0,0],
[19,5,1,4,1,0,0, 0,0, 0,0],
[36,2,9,3,9,3,8,0,0, 0,0],
[8,16,14,0,0, 0,0, 0,0, 0,0],
[28,13,16,12,16,12,15,0,0, 0,0],
[1,1,4,0,0, 0,0, 0,0, 0,0],
[27,15,13,16,13,0,0, 0,0, 0,0],
[17,16,1,15,1,0,0, 0,0, 0,0],
[14,12,6,0,0, 0,0, 0,0, 0,0],
[13,4,14,0,0, 0,0, 0,0, 0,0],
[41,3,3,3,4,2,4,2,3,0,0],
[30,10,11,9,11,10,10,0,0, 0,0],
[3,2,12,0,0, 0,0, 0,0, 0,0],
[19,2,13,3,13,3,12,0,0, 0,0],
[19,3,6,3,7,0,0, 0,0, 0,0],
[25,3,15,4,15,5,15,0,0, 0,0],
[20,4,2,4,3,0,0, 0,0, 0,0],
[19,4,12,4,13,0,0, 0,0, 0,0],
[36,4,16,5,16,6,16,6,15,0,0],
[3,6,2,6,3,0,0, 0,0, 0,0],
[13,7,1,0,0, 0,0, 0,0, 0,0],
[9,7,8,8,8,0,0, 0,0, 0,0],
[9,7,14,0,0, 0,0, 0,0, 0,0],
[5,7,16,8,16,0,0, 0,0, 0,0],
[19,8,1,9,1,0,0, 0,0, 0,0],
[27,8,6,9,6,0,0, 0,0, 0,0],
[31,8,14,9,14,10,14,0,0, 0,0],
[43,10,8,11,8,12,8,12,7,0,0],
[9,13,6,0,0, 0,0, 0,0, 0,0],
[18,13,7,14,7,0,0, 0,0, 0,0]
]
